2707171905051432259503,15,1,2,08,15,1,2,02,4,1,2,04,1,1,2,07,15,1,2,03,4,1,2,01,3,1,2,01,15,1,2,07,13,1,2,01,7,1,2,012,13,1,2,05,15,1,2,06,10,1,2,01,2,1,2,06,11,1,2,011,8,1,2,04,15,1,2,06,2,1,2,09,8,1,2,010,2,1,2,010,4,1,2,07,10,1,2,014,8,1,2,014,8,1,2,013,14,1,2,06,2,1,2,013,15,1,2,06,7,1,2,04,12,1,2,04,9,1,2,014,13,1,2,010,12,1,2,04,13,1,2,08,13,1,2,09,15,1,2,012,14,1,2,07,13,1,2,08,12,1,2,014,6,1,2,03,9,1,2,01,5,1,2,03,1,1,2,03,1,1,2,01,12,1,2,05,12,1,2,05,14,1,2,012,10,1,2,02,4,1,2,014,15,1,2,014,15,1,2,0